NAME: A-n5
COMMENT: okkkk
TYPE: CVRP
DIMENSION: 6
EDGE_WEIGHT_TYPE: EUC_2D
CAPACITY: 10
NODE_COORD_SECTION
 0 2313 0
 1 313 0
 2 0 950
 3 5285 1849
 4 4683 3222
 5 2193 2998
DEMAND_SECTION
0 0
1 5
2 4
3 7
4 2
5 4
DEPOT_SECTION
 1
 -1
EOF
